experiments/lot-sizing/detailed-output/inst-9-1222707704.dzn

change_cost = array2d(0..8, 0..8,
                      [0, 0, 0, 0, 0, 0, 0, 0, 0, 0, 0, 144, 137, 112, 85, 16, 115, 58,
                       0, 179, 0, 112, 196, 174, 85, 144, 126, 0, 147, 100, 0, 171, 167, 105, 62, 137,
                       0, 84, 58, 57, 0, 124, 42, 9, 105, 0, 129, 144, 77, 149, 0, 53, 58, 25,
                       0, 111, 199, 166, 186, 126, 0, 113, 63, 0, 194, 137, 95, 137, 124, 123, 0, 139,
                       0, 112, 183, 196, 173, 148, 112, 165, 0]);
due_period = array1d(1..8, [3, 4, 5, 10, 1, 8, 4, 2]);
inventory_cost = 8;
item_type = array1d(0..8, [0, 1, 2, 2, 3, 4, 5, 6, 6]);
nb_item_types = 6;
nb_of_orders = array1d(1..6, [1, 2, 1, 1, 1, 2]);
nb_orders = 8;
nb_periods = 10;
